c Created with the Wolfram Language : www.wolfram.com
c 
p edge 90 799
e 2 5
e 2 6
e 4 6
e 2 7
e 4 7
e 1 9
e 4 9
e 3 10
e 6 10
e 9 10
e 2 11
e 4 11
e 10 11
e 1 12
e 8 12
e 9 12
e 10 12
e 2 13
e 4 13
e 1 14
e 12 14
e 7 15
e 8 15
e 11 15
e 13 15
e 8 16
e 10 16
e 5 17
e 8 17
e 12 17
e 14 18
e 15 18
e 12 19
e 17 19
e 10 20
e 17 20
e 9 21
e 4 22
e 5 22
e 16 22
e 1 23
e 16 23
e 19 23
e 22 23
e 3 24
e 7 24
e 15 24
e 16 24
e 22 24
e 5 25
e 11 25
e 1 26
e 6 26
e 9 26
e 16 26
e 5 27
e 10 27
e 18 27
e 11 28
e 16 28
e 18 28
e 20 28
e 21 28
e 22 28
e 26 28
e 2 29
e 4 29
e 8 29
e 25 29
e 3 30
e 6 30
e 10 30
e 15 30
e 20 30
e 21 30
e 27 30
e 28 30
e 1 31
e 7 31
e 9 31
e 12 31
e 15 31
e 16 31
e 12 32
e 15 32
e 19 32
e 24 32
e 31 32
e 2 33
e 4 33
e 8 33
e 13 33
e 19 33
e 21 33
e 22 33
e 28 33
e 17 34
e 19 34
e 24 34
e 31 34
e 1 35
e 2 35
e 6 35
e 8 35
e 11 35
e 12 35
e 14 35
e 18 35
e 20 35
e 24 35
e 33 35
e 6 36
e 18 36
e 22 36
e 26 36
e 27 36
e 6 37
e 7 37
e 15 37
e 22 37
e 26 37
e 32 37
e 8 38
e 9 38
e 13 38
e 16 38
e 31 38
e 35 38
e 1 39
e 2 39
e 3 39
e 12 39
e 15 39
e 16 39
e 21 39
e 25 39
e 27 39
e 3 40
e 6 40
e 11 40
e 12 40
e 21 40
e 28 40
e 33 40
e 38 40
e 12 41
e 13 41
e 17 41
e 18 41
e 19 41
e 20 41
e 24 41
e 25 41
e 27 41
e 35 41
e 39 41
e 20 42
e 21 42
e 22 42
e 26 42
e 36 42
e 37 42
e 39 42
e 18 43
e 21 43
e 23 43
e 32 43
e 34 43
e 37 43
e 38 43
e 40 43
e 3 44
e 21 44
e 23 44
e 27 44
e 31 44
e 37 44
e 39 44
e 4 45
e 6 45
e 9 45
e 15 45
e 18 45
e 19 45
e 30 45
e 31 45
e 33 45
e 39 45
e 43 45
e 2 46
e 3 46
e 10 46
e 14 46
e 18 46
e 25 46
e 28 46
e 31 46
e 32 46
e 36 46
e 1 47
e 4 47
e 5 47
e 6 47
e 19 47
e 29 47
e 33 47
e 34 47
e 8 48
e 10 48
e 14 48
e 16 48
e 20 48
e 31 48
e 33 48
e 5 49
e 7 49
e 8 49
e 11 49
e 14 49
e 20 49
e 21 49
e 24 49
e 27 49
e 30 49
e 47 49
e 4 50
e 15 50
e 16 50
e 21 50
e 24 50
e 26 50
e 37 50
e 38 50
e 44 50
e 49 50
e 1 51
e 2 51
e 3 51
e 4 51
e 6 51
e 8 51
e 13 51
e 14 51
e 19 51
e 21 51
e 36 51
e 5 52
e 6 52
e 14 52
e 18 52
e 23 52
e 25 52
e 26 52
e 27 52
e 33 52
e 34 52
e 38 52
e 40 52
e 42 52
e 45 52
e 46 52
e 49 52
e 50 52
e 1 53
e 10 53
e 17 53
e 18 53
e 33 53
e 44 53
e 47 53
e 51 53
e 4 54
e 6 54
e 8 54
e 10 54
e 12 54
e 15 54
e 17 54
e 18 54
e 29 54
e 32 54
e 37 54
e 39 54
e 52 54
e 3 55
e 5 55
e 12 55
e 22 55
e 36 55
e 37 55
e 38 55
e 43 55
e 49 55
e 10 56
e 17 56
e 22 56
e 33 56
e 36 56
e 43 56
e 45 56
e 3 57
e 10 57
e 12 57
e 14 57
e 19 57
e 26 57
e 36 57
e 43 57
e 45 57
e 47 57
e 50 57
e 55 57
e 3 58
e 6 58
e 10 58
e 12 58
e 29 58
e 33 58
e 39 58
e 42 58
e 53 58
e 54 58
e 56 58
e 13 59
e 18 59
e 21 59
e 29 59
e 36 59
e 37 59
e 43 59
e 44 59
e 45 59
e 47 59
e 50 59
e 6 60
e 10 60
e 14 60
e 15 60
e 27 60
e 31 60
e 36 60
e 37 60
e 43 60
e 44 60
e 47 60
e 50 60
e 55 60
e 6 61
e 7 61
e 8 61
e 10 61
e 12 61
e 13 61
e 14 61
e 17 61
e 19 61
e 22 61
e 31 61
e 33 61
e 38 61
e 42 61
e 43 61
e 44 61
e 49 61
e 51 61
e 58 61
e 11 62
e 17 62
e 25 62
e 27 62
e 28 62
e 30 62
e 32 62
e 35 62
e 36 62
e 37 62
e 50 62
e 3 63
e 6 63
e 7 63
e 9 63
e 10 63
e 21 63
e 29 63
e 36 63
e 38 63
e 42 63
e 46 63
e 51 63
e 55 63
e 3 64
e 14 64
e 21 64
e 25 64
e 42 64
e 46 64
e 47 64
e 49 64
e 51 64
e 54 64
e 62 64
e 2 65
e 3 65
e 4 65
e 8 65
e 9 65
e 16 65
e 26 65
e 28 65
e 32 65
e 34 65
e 49 65
e 53 65
e 56 65
e 62 65
e 7 66
e 9 66
e 13 66
e 15 66
e 18 66
e 32 66
e 33 66
e 35 66
e 38 66
e 39 66
e 41 66
e 48 66
e 51 66
e 57 66
e 11 67
e 12 67
e 25 67
e 27 67
e 41 67
e 46 67
e 48 67
e 58 67
e 61 67
e 64 67
e 66 67
e 4 68
e 6 68
e 16 68
e 22 68
e 24 68
e 35 68
e 38 68
e 39 68
e 47 68
e 50 68
e 54 68
e 63 68
e 67 68
e 5 69
e 9 69
e 12 69
e 17 69
e 21 69
e 27 69
e 29 69
e 31 69
e 36 69
e 43 69
e 49 69
e 51 69
e 57 69
e 61 69
e 6 70
e 7 70
e 8 70
e 15 70
e 26 70
e 28 70
e 37 70
e 63 70
e 67 70
e 68 70
e 2 71
e 4 71
e 17 71
e 25 71
e 27 71
e 35 71
e 38 71
e 46 71
e 56 71
e 64 71
e 69 71
e 70 71
e 1 72
e 2 72
e 8 72
e 22 72
e 23 72
e 28 72
e 29 72
e 31 72
e 37 72
e 39 72
e 43 72
e 46 72
e 52 72
e 54 72
e 60 72
e 63 72
e 64 72
e 66 72
e 1 73
e 2 73
e 9 73
e 21 73
e 25 73
e 30 73
e 36 73
e 37 73
e 40 73
e 44 73
e 52 73
e 61 73
e 64 73
e 66 73
e 69 73
e 70 73
e 71 73
e 10 74
e 18 74
e 23 74
e 34 74
e 35 74
e 37 74
e 39 74
e 44 74
e 52 74
e 55 74
e 57 74
e 60 74
e 62 74
e 66 74
e 4 75
e 13 75
e 14 75
e 19 75
e 26 75
e 27 75
e 29 75
e 31 75
e 36 75
e 40 75
e 51 75
e 52 75
e 57 75
e 58 75
e 59 75
e 60 75
e 65 75
e 68 75
e 71 75
e 3 76
e 4 76
e 5 76
e 8 76
e 9 76
e 12 76
e 28 76
e 33 76
e 40 76
e 41 76
e 42 76
e 56 76
e 65 76
e 68 76
e 73 76
e 3 77
e 6 77
e 8 77
e 19 77
e 21 77
e 24 77
e 33 77
e 42 77
e 44 77
e 59 77
e 69 77
e 4 78
e 7 78
e 12 78
e 18 78
e 34 78
e 37 78
e 39 78
e 44 78
e 55 78
e 56 78
e 60 78
e 63 78
e 70 78
e 71 78
e 75 78
e 10 79
e 11 79
e 17 79
e 19 79
e 24 79
e 26 79
e 27 79
e 37 79
e 44 79
e 45 79
e 47 79
e 51 79
e 59 79
e 69 79
e 77 79
e 5 80
e 6 80
e 20 80
e 28 80
e 29 80
e 31 80
e 34 80
e 38 80
e 39 80
e 40 80
e 44 80
e 46 80
e 47 80
e 51 80
e 57 80
e 58 80
e 60 80
e 61 80
e 67 80
e 69 80
e 79 80
e 7 81
e 9 81
e 11 81
e 19 81
e 25 81
e 37 81
e 40 81
e 45 81
e 51 81
e 55 81
e 62 81
e 63 81
e 64 81
e 67 81
e 76 81
e 77 81
e 78 81
e 3 82
e 6 82
e 9 82
e 17 82
e 21 82
e 27 82
e 34 82
e 39 82
e 41 82
e 43 82
e 45 82
e 48 82
e 57 82
e 62 82
e 66 82
e 69 82
e 73 82
e 81 82
e 4 83
e 6 83
e 20 83
e 29 83
e 34 83
e 39 83
e 42 83
e 45 83
e 48 83
e 51 83
e 72 83
e 80 83
e 6 84
e 11 84
e 12 84
e 30 84
e 31 84
e 33 84
e 39 84
e 46 84
e 48 84
e 54 84
e 55 84
e 57 84
e 60 84
e 63 84
e 64 84
e 66 84
e 82 84
e 10 85
e 13 85
e 18 85
e 22 85
e 26 85
e 30 85
e 33 85
e 34 85
e 47 85
e 49 85
e 53 85
e 58 85
e 59 85
e 63 85
e 69 85
e 76 85
e 78 85
e 81 85
e 19 86
e 23 86
e 32 86
e 34 86
e 39 86
e 41 86
e 48 86
e 52 86
e 56 86
e 59 86
e 62 86
e 67 86
e 72 86
e 76 86
e 79 86
e 2 87
e 8 87
e 9 87
e 11 87
e 21 87
e 22 87
e 27 87
e 32 87
e 34 87
e 36 87
e 39 87
e 42 87
e 49 87
e 53 87
e 56 87
e 69 87
e 74 87
e 76 87
e 86 87
e 3 88
e 7 88
e 9 88
e 10 88
e 11 88
e 15 88
e 17 88
e 19 88
e 25 88
e 31 88
e 34 88
e 45 88
e 52 88
e 54 88
e 56 88
e 77 88
e 5 89
e 23 89
e 29 89
e 30 89
e 38 89
e 39 89
e 50 89
e 51 89
e 57 89
e 67 89
e 70 89
e 74 89
e 77 89
e 82 89
e 88 89
e 7 90
e 8 90
e 10 90
e 15 90
e 22 90
e 26 90
e 29 90
e 30 90
e 37 90
e 40 90
e 43 90
e 51 90
e 53 90
e 63 90
e 74 90
e 75 90
e 86 90
e 89 90
